files/upTests/tuplesComplex/0002.eprime
language ESSENCE' 1.0

find pain_tuple1_tuple1_SetOccurrence: matrix indexed by [int(1, 3)] of bool
find pain_tuple1_tuple2_SetExplicitVarSize_tuple1:
        matrix indexed by [int(1..2)] of bool
find pain_tuple1_tuple2_SetExplicitVarSize_tuple2_tuple1:
        matrix indexed by [int(1..2)] of int(1, 2)
find pain_tuple1_tuple2_SetExplicitVarSize_tuple2_tuple2:
        matrix indexed by [int(1..2)] of int(5)
find pain_tuple2: int(3)
such that
    pain_tuple1_tuple2_SetExplicitVarSize_tuple1[1]
    /\
    pain_tuple1_tuple2_SetExplicitVarSize_tuple1[2]
    ->
    pain_tuple1_tuple2_SetExplicitVarSize_tuple2_tuple1[1]
    <
    pain_tuple1_tuple2_SetExplicitVarSize_tuple2_tuple1[2]
    \/
    pain_tuple1_tuple2_SetExplicitVarSize_tuple2_tuple1[1]
    =
    pain_tuple1_tuple2_SetExplicitVarSize_tuple2_tuple1[2]
    /\
    pain_tuple1_tuple2_SetExplicitVarSize_tuple2_tuple2[1]
    <
    pain_tuple1_tuple2_SetExplicitVarSize_tuple2_tuple2[2],
    pain_tuple1_tuple2_SetExplicitVarSize_tuple1[1]
    <=
    pain_tuple1_tuple2_SetExplicitVarSize_tuple1[2],
    pain_tuple1_tuple1_SetOccurrence[3] = true,
    pain_tuple2 = 3,
    (sum v__0 : int(1..2) . pain_tuple1_tuple2_SetExplicitVarSize_tuple1[v__0])
    >=
    1,
    (sum v__0 : int(1, 3) . pain_tuple1_tuple1_SetOccurrence[v__0]) >= 1,
    exists v__0 : int(1..2)
        . pain_tuple1_tuple2_SetExplicitVarSize_tuple1[v__0]
          /\
          (pain_tuple1_tuple2_SetExplicitVarSize_tuple2_tuple1[v__0] = 1
           /\
           pain_tuple1_tuple2_SetExplicitVarSize_tuple2_tuple2[v__0] = 5),
    forAll v__0 : int(1..2)
        . pain_tuple1_tuple2_SetExplicitVarSize_tuple1[v__0]
          ->
          1 = pain_tuple1_tuple2_SetExplicitVarSize_tuple2_tuple1[v__0]
          /\
          5 = pain_tuple1_tuple2_SetExplicitVarSize_tuple2_tuple2[v__0],
    forAll v__0 : int(1, 3) . pain_tuple1_tuple1_SetOccurrence[v__0] -> 3 = v__0
