files/upTests/tuplesComplex/0002.eprime.solution
language ESSENCE' 1.0
$ minion Nodes: 2
$ minion TotalTime: 0.001313
$ Savile Row TotalTime: 0.469
letting pain_tuple2 be 3
letting pain_tuple1_tuple1_SetOccurrence be [false, true;int(1,3)]
letting pain_tuple1_tuple2_SetExplicitVarSize_tuple1 be [false, true;int(1..2)]
letting pain_tuple1_tuple2_SetExplicitVarSize_tuple2_tuple1 be [1, 1;int(1..2)]
letting pain_tuple1_tuple2_SetExplicitVarSize_tuple2_tuple2 be [5, 5;int(1..2)]
